N = 7;
H = 5;
T = 2;

avail = array3d(1..N, 1..H, 1..T, [0, 7, 4, 7, 0, 7, 4, 1, 1, 8, 0, 7, 5, 9, 8, 10, 10, 7, 6, 9, 9, 4, 4, 3, 6, 6, 3, 10, 9, 0, 6, 10, 6, 4, 3, 10, 10, 10, 0, 2, 0, 10, 6, 0, 4, 7, 2, 10, 3, 5, 10, 0, 2, 6, 4, 0, 0, 2, 10, 7, 10, 2, 6, 10, 3, 5, 4, 8, 10, 0]);

r = array2d(1..H, 1..T, [2, 1, 2, 3, 2, 1, 0, 3, 2, 2]);
